604371557662046566503,7,1,2,02,1,1,2,09,10,1,2,02,10,1,2,013,14,1,2,08,15,1,2,014,4,1,2,06,11,1,2,03,12,1,2,07,15,1,2,02,12,1,2,010,8,1,2,010,14,1,2,013,12,1,2,013,1,1,2,09,14,1,2,010,12,1,2,013,7,1,2,07,13,1,2,02,3,1,2,01,1,1,2,012,6,1,2,012,4,1,2,06,10,1,2,02,8,1,2,01,5,1,2,010,3,1,2,013,8,1,2,012,5,1,2,012,11,1,2,01,6,1,2,04,11,1,2,014,15,1,2,05,12,1,2,011,13,1,2,03,10,1,2,03,2,1,2,013,12,1,2,010,12,1,2,01,12,1,2,02,12,1,2,07,9,1,2,012,13,1,2,03,10,1,2,02,3,1,2,05,3,1,2,01,1,1,2,01,13,1,2,015,5,1,2,06,15,1,2,0